NAME : LPS-n7-m191
COMMENT : (Lartu-Peter-Santi Plot, instance 1791 out of 39200. 7 customers.)
TYPE : CVRP
DIMENSION : 7
EDGE_WEIGHT_TYPE : EUC_2D
CAPACITY : 129
NODE_COORD_SECTION
 1 69 1
 2 22 83
 3 74 77
 4 11 50
 5 53 4
 6 100 66
 7 3 100
DEMAND_SECTION
1 0
2 3
3 76
4 5
5 126
6 57
7 116
DEPOT_SECTION
 1
 -1
EOF
